\ Model opf_with_ldf_lc_copy
\ LP format - for model browsing. Use MPS format to capture full model detail.
Minimize
 
Subject To
 Q_accumulated_48_35: Q_accumulated[48,35] = -0.00831735367970103
 Q_send_calc_33: Q_branch[48,33] - Q_accumulated[48,35] = 0
 S_branch_limit_48_33: [ P_branch[48,33] ^2 + Q_branch[48,33] ^2 ]
   <= 7.31578e-08
Bounds
 P_branch[48,33] free
 Q_branch[48,33] free
 Q_accumulated[48,35] free
End
